0 3 3 3 5 8 6 5 5 2 5 4 3 3 5 
7 0 3 9 8 3 6 3 8 3 5 3 4 5 7 
4 3 0 6 3 9 7 9 2 1 2 1 1 5 2 
2 1 7 0 6 9 6 8 1 7 8 6 6 8 8 
6 8 4 3 0 3 9 6 9 7 2 2 6 1 7 
6 7 7 4 6 0 5 9 9 3 9 1 5 1 9 
4 1 3 1 1 2 0 8 9 2 8 3 6 3 8 
3 2 1 1 3 9 6 0 1 2 3 3 5 1 8 
6 7 6 3 2 3 6 9 0 1 2 4 6 7 8 
7 2 1 2 9 8 6 6 5 0 4 7 5 4 7 
9 5 7 6 9 2 3 2 3 7 0 8 9 1 4 
6 5 6 5 5 8 2 1 8 3 7 0 2 6 9 
2 4 6 6 2 8 6 5 1 3 8 5 0 7 6 
3 3 7 9 8 7 9 1 6 8 7 3 9 0 1 
9 2 3 4 4 9 3 5 9 6 7 5 7 3 0